NAME example03.mps
OBJSENSE
 MAX
ROWS
 N  obj     
 G  c1
 L  c2
COLUMNS
    x1        obj                  1
    x1        c1                   2   c2                   4
    x2        obj                  2
    x2        c1                  -1   c2                    7
RHS
    rhs       c1                   2   c2                   28
ENDATA
